
n_res = 6;
rcap = [75, 70, 1009, 1067, 1102, 987];
rtype = [1, 1, 2, 2, 2, 2];
n_tasks = 100;
modes =  [{1, 2, 3, 4, 5, 6}, {7, 8, 9, 10, 11, 12}, {13, 14, 15, 16, 17, 18}, {19, 20, 21, 22, 23, 24}, {25, 26, 27, 28, 29, 30}, {31, 32, 33, 34, 35, 36}, {37, 38, 39, 40, 41, 42}, {43, 44, 45, 46, 47, 48}, {49, 50, 51, 52, 53, 54}, {55, 56, 57, 58, 59, 60}, {61, 62, 63, 64, 65, 66}, {67, 68, 69, 70, 71, 72}, {73, 74, 75, 76, 77, 78}, {79, 80, 81, 82, 83, 84}, {85, 86, 87, 88, 89, 90}, {91, 92, 93, 94, 95, 96}, {97, 98, 99, 100, 101, 102}, {103, 104, 105, 106, 107, 108}, {109, 110, 111, 112, 113, 114}, {115, 116, 117, 118, 119, 120}, {121, 122, 123, 124, 125, 126}, {127, 128, 129, 130, 131, 132}, {133, 134, 135, 136, 137, 138}, {139, 140, 141, 142, 143, 144}, {145, 146, 147, 148, 149, 150}, {151, 152, 153, 154, 155, 156}, {157, 158, 159, 160, 161, 162}, {163, 164, 165, 166, 167, 168}, {169, 170, 171, 172, 173, 174}, {175, 176, 177, 178, 179, 180}, {181, 182, 183, 184, 185, 186}, {187, 188, 189, 190, 191, 192}, {193, 194, 195, 196, 197, 198}, {199, 200, 201, 202, 203, 204}, {205, 206, 207, 208, 209, 210}, {211, 212, 213, 214, 215, 216}, {217, 218, 219, 220, 221, 222}, {223, 224, 225, 226, 227, 228}, {229, 230, 231, 232, 233, 234}, {235, 236, 237, 238, 239, 240}, {241, 242, 243, 244, 245, 246}, {247, 248, 249, 250, 251, 252}, {253, 254, 255, 256, 257, 258}, {259, 260, 261, 262, 263, 264}, {265, 266, 267, 268, 269, 270}, {271, 272, 273, 274, 275, 276}, {277, 278, 279, 280, 281, 282}, {283, 284, 285, 286, 287, 288}, {289, 290, 291, 292, 293, 294}, {295, 296, 297, 298, 299, 300}, {301, 302, 303, 304, 305, 306}, {307, 308, 309, 310, 311, 312}, {313, 314, 315, 316, 317, 318}, {319, 320, 321, 322, 323, 324}, {325, 326, 327, 328, 329, 330}, {331, 332, 333, 334, 335, 336}, {337, 338, 339, 340, 341, 342}, {343, 344, 345, 346, 347, 348}, {349, 350, 351, 352, 353, 354}, {355, 356, 357, 358, 359, 360}, {361, 362, 363, 364, 365, 366}, {367, 368, 369, 370, 371, 372}, {373, 374, 375, 376, 377, 378}, {379, 380, 381, 382, 383, 384}, {385, 386, 387, 388, 389, 390}, {391, 392, 393, 394, 395, 396}, {397, 398, 399, 400, 401, 402}, {403, 404, 405, 406, 407, 408}, {409, 410, 411, 412, 413, 414}, {415, 416, 417, 418, 419, 420}, {421, 422, 423, 424, 425, 426}, {427, 428, 429, 430, 431, 432}, {433, 434, 435, 436, 437, 438}, {439, 440, 441, 442, 443, 444}, {445, 446, 447, 448, 449, 450}, {451, 452, 453, 454, 455, 456}, {457, 458, 459, 460, 461, 462}, {463, 464, 465, 466, 467, 468}, {469, 470, 471, 472, 473, 474}, {475, 476, 477, 478, 479, 480}, {481, 482, 483, 484, 485, 486}, {487, 488, 489, 490, 491, 492}, {493, 494, 495, 496, 497, 498}, {499, 500, 501, 502, 503, 504}, {505, 506, 507, 508, 509, 510}, {511, 512, 513, 514, 515, 516}, {517, 518, 519, 520, 521, 522}, {523, 524, 525, 526, 527, 528}, {529, 530, 531, 532, 533, 534}, {535, 536, 537, 538, 539, 540}, {541, 542, 543, 544, 545, 546}, {547, 548, 549, 550, 551, 552}, {553, 554, 555, 556, 557, 558}, {559, 560, 561, 562, 563, 564}, {565, 566, 567, 568, 569, 570}, {571, 572, 573, 574, 575, 576}, {577, 578, 579, 580, 581, 582}, {583, 584, 585, 586, 587, 588}, {589, 590, 591, 592, 593, 594}, {595, 596, 597, 598, 599, 600}];
succ =  [{13, 9, 3, 2}, {17, 7, 6}, {18, 16, 6}, {17, 16, 6}, {22, 12, 7}, {26, 24, 23, 19, 14, 12}, {23, 19, 18, 10}, {37, 33, 26, 23, 22, 19, 16}, {23, 22, 20, 16, 12}, {39, 37, 34, 24, 16}, {39, 37, 34, 24, 16}, {39, 38, 37, 35, 34, 32, 31, 27, 25, 21}, {37, 34, 33, 16}, {39, 37, 35, 32, 31, 27, 21}, {46, 31, 28, 27, 26, 25}, {38, 35, 32, 31, 27, 21}, {35, 29, 20}, {46, 43, 35, 34, 33, 30, 29}, {34, 20}, {44, 43, 42, 39, 38, 36, 30}, {46, 45, 43, 29, 28}, {43, 42, 35, 28}, {48, 46, 45, 44, 43, 42, 40, 36}, {60, 50, 48, 46, 44, 43, 33}, {48, 44, 43, 36, 33}, {38, 36, 35, 34}, {53, 45, 42, 30}, {44, 30}, {44, 42, 36}, {60, 56, 50, 48, 41, 40}, {59, 54, 49, 36}, {60, 57, 56, 54, 52, 50, 49, 45, 41}, {53, 42, 41, 40}, {66, 60, 59, 56, 55, 52, 49, 47, 42}, {60, 55, 53, 45, 40}, {60, 57, 53, 52, 50, 41}, {66, 60, 59, 58, 56, 55, 54, 52, 51, 50, 47}, {66, 60, 59, 56, 55, 54, 52, 50, 49, 47}, {66, 53, 52, 50, 46, 45}, {66, 62, 59, 58, 54, 52, 49}, {66, 61, 58, 55, 51, 47}, {68, 65, 63, 62, 61, 58, 57, 54}, {72, 66, 65, 61, 56, 55, 54}, {66, 65, 64, 61, 49}, {69, 67, 65, 64, 63, 61, 59}, {68, 63, 62, 55, 54}, {75, 68, 67, 65, 63, 62}, {70, 68, 67, 62, 57}, {79, 67, 51}, {81, 79, 72, 70, 68, 67, 61}, {76, 75, 71, 69, 68, 63}, {81, 75, 73, 72, 67, 65}, {56}, {91, 79, 75, 69, 67, 64}, {91, 81, 79, 75, 67, 64}, {79, 75, 71, 70, 68, 67}, {81, 75, 74, 72, 69, 64}, {100, 83, 79, 75, 73, 72, 71, 67}, {79, 76, 75, 74, 71, 70, 68}, {81, 76, 75, 74, 72, 69, 68}, {100, 91, 77, 76, 75, 74, 73, 71}, {76, 73, 72, 69}, {100, 85, 84, 83, 82, 81, 74, 72}, {100, 83, 77, 76, 73, 71}, {79, 74, 71, 70}, {100, 91, 84, 74, 71}, {90, 87, 85, 84, 82, 80, 77, 76, 74}, {100, 91, 82, 77, 73}, {100, 90, 85, 84, 83, 82, 80, 78}, {98, 88, 87, 86, 84, 83, 82, 77}, {97, 90, 88, 87, 85, 82, 80}, {99, 91, 90, 88, 80, 78, 77}, {99, 98, 88, 84, 80, 78}, {98, 97, 96, 88, 86}, {99, 90, 86, 84}, {98, 97, 95, 94, 86}, {97, 96, 95, 94, 93, 89}, {96, 94, 93, 87}, {94, 93, 89, 87}, {96, 94, 86}, {88, 87}, {99, 93, 89}, {96, 93, 89}, {97, 95, 92}, {98, 93, 92}, {93, 89}, {95, 92}, {94, 93}, {92}, {93}, {92}, {}, {}, {}, {}, {}, {}, {}, {}, {}];
n_opt = 600;
dur = [2, 7, 10, 14, 15, 19, 7, 10, 11, 15, 16, 19, 3, 7, 12, 13, 17, 18, 4, 5, 12, 13, 14, 19, 1, 7, 10, 11, 18, 19, 2, 10, 11, 12, 15, 16, 1, 2, 4, 5, 13, 20, 8, 9, 15, 17, 19, 20, 2, 8, 15, 18, 19, 20, 2, 6, 13, 14, 15, 17, 5, 6, 7, 9, 11, 16, 1, 7, 11, 14, 19, 20, 6, 9, 11, 13, 15, 18, 9, 12, 13, 17, 18, 19, 3, 4, 6, 11, 14, 15, 1, 6, 14, 15, 16, 17, 2, 3, 10, 11, 12, 20, 1, 9, 10, 11, 12, 18, 10, 12, 13, 14, 15, 19, 2, 7, 13, 15, 19, 20, 2, 8, 9, 10, 11, 14, 1, 2, 10, 11, 15, 19, 2, 9, 10, 14, 15, 19, 2, 7, 10, 11, 16, 17, 2, 3, 11, 12, 13, 15, 2, 7, 8, 15, 16, 19, 2, 8, 12, 14, 15, 19, 3, 4, 6, 10, 16, 17, 4, 5, 7, 9, 17, 18, 2, 6, 9, 14, 16, 17, 2, 5, 7, 12, 13, 15, 3, 5, 6, 9, 16, 17, 2, 11, 12, 13, 14, 17, 2, 4, 7, 8, 9, 10, 2, 4, 8, 12, 13, 15, 3, 4, 5, 6, 12, 20, 5, 7, 12, 13, 16, 17, 11, 12, 14, 16, 17, 20, 3, 4, 6, 11, 13, 17, 2, 6, 7, 8, 15, 18, 5, 6, 7, 10, 18, 19, 8, 10, 11, 12, 14, 18, 6, 9, 11, 12, 14, 20, 4, 5, 8, 12, 15, 16, 4, 9, 11, 12, 13, 20, 6, 7, 9, 13, 16, 17, 7, 8, 11, 12, 18, 19, 3, 6, 14, 15, 19, 20, 4, 6, 7, 8, 16, 19, 5, 8, 11, 12, 13, 14, 3, 4, 7, 8, 9, 11, 3, 5, 10, 11, 18, 19, 2, 13, 14, 15, 16, 18, 2, 9, 11, 14, 15, 19, 5, 6, 10, 11, 12, 15, 1, 5, 6, 7, 8, 16, 6, 7, 11, 12, 16, 17, 2, 8, 12, 13, 14, 20, 5, 12, 13, 14, 16, 18, 2, 3, 4, 8, 11, 20, 6, 9, 12, 13, 18, 19, 3, 4, 5, 6, 7, 8, 1, 4, 6, 10, 17, 18, 1, 6, 7, 14, 19, 20, 1, 2, 3, 10, 15, 16, 1, 6, 14, 17, 19, 20, 1, 2, 7, 13, 16, 17, 4, 5, 6, 8, 11, 16, 2, 4, 5, 7, 13, 17, 2, 12, 13, 14, 17, 19, 1, 3, 4, 8, 11, 18, 2, 3, 4, 6, 10, 14, 9, 11, 12, 13, 15, 20, 9, 12, 15, 17, 19, 20, 1, 7, 17, 18, 19, 20, 2, 8, 9, 10, 11, 17, 1, 3, 8, 11, 12, 19, 1, 4, 6, 13, 17, 18, 3, 5, 8, 13, 15, 16, 4, 5, 6, 12, 13, 14, 5, 6, 9, 10, 13, 19, 3, 5, 8, 10, 13, 19, 1, 3, 5, 7, 10, 18, 2, 7, 9, 10, 14, 18, 11, 13, 14, 17, 18, 20, 8, 9, 10, 16, 17, 19, 2, 3, 6, 12, 13, 18, 3, 7, 8, 9, 13, 16, 2, 5, 7, 8, 13, 15, 4, 9, 14, 16, 18, 19, 2, 7, 10, 11, 12, 15, 2, 3, 5, 7, 17, 19, 1, 4, 8, 9, 14, 16, 4, 5, 6, 9, 15, 19, 2, 3, 9, 12, 15, 16, 2, 6, 9, 11, 14, 19, 6, 7, 8, 10, 11, 15, 1, 2, 3, 6, 15, 16, 4, 5, 6, 7, 9, 19, 1, 2, 10, 11, 16, 20];
rreq = [|15, 14, 11, 8, 5, 2, 16, 11, 10, 7, 4, 3, 20, 20, 20, 20, 20, 20, 14, 13, 12, 11, 10, 8, 9, 7, 7, 6, 6, 5, 15, 14, 14, 14, 13, 13, 5, 4, 4, 3, 3, 3, 12, 10, 10, 10, 9, 8, 18, 18, 17, 16, 14, 14, 11, 9, 7, 5, 5, 3, 10, 8, 8, 5, 4, 2, 14, 13, 11, 8, 7, 3, 9, 7, 7, 7, 6, 5, 17, 12, 11, 8, 5, 3, 7, 5, 4, 3, 2, 2, 4, 3, 3, 2, 2, 1, 5, 5, 5, 5, 5, 5, 10, 8, 7, 6, 3, 3, 16, 15, 15, 14, 14, 14, 5, 5, 4, 4, 3, 3, 12, 10, 9, 6, 5, 3, 16, 14, 14, 13, 12, 10, 6, 6, 4, 4, 3, 1, 17, 17, 14, 11, 10, 8, 17, 13, 9, 9, 5, 2, 18, 15, 14, 12, 12, 10, 14, 12, 12, 8, 7, 3, 20, 15, 15, 10, 9, 7, 19, 19, 18, 18, 17, 17, 17, 13, 10, 7, 3, 1, 10, 7, 7, 5, 3, 2, 18, 17, 15, 15, 12, 11, 6, 4, 4, 3, 1, 1, 19, 16, 16, 13, 13, 10, 6, 6, 4, 3, 3, 2, 17, 12, 10, 8, 7, 3, 14, 14, 11, 8, 7, 5, 15, 13, 12, 12, 10, 9, 9, 8, 8, 7, 7, 7, 19, 16, 13, 10, 8, 2, 17, 15, 15, 14, 12, 12, 16, 13, 10, 8, 4, 3, 15, 13, 12, 11, 11, 10, 10, 10, 10, 10, 10, 10, 5, 5, 5, 5, 5, 5, 9, 9, 9, 9, 9, 9, 12, 12, 11, 11, 10, 10, 15, 13, 13, 13, 11, 11, 13, 12, 11, 9, 8, 7, 15, 14, 11, 6, 3, 3, 13, 11, 8, 7, 3, 3, 14, 12, 11, 10, 8, 7, 10, 9, 8, 8, 8, 7, 9, 8, 8, 8, 8, 8, 17, 16, 16, 16, 15, 15, 18, 14, 13, 11, 10, 8, 12, 11, 11, 11, 11, 11, 10, 10, 10, 10, 10, 10, 15, 15, 15, 14, 14, 13, 17, 12, 10, 9, 4, 2, 16, 16, 14, 12, 10, 7, 11, 8, 7, 5, 5, 2, 12, 11, 10, 7, 5, 4, 7, 6, 5, 4, 3, 3, 19, 19, 19, 18, 18, 18, 15, 14, 13, 13, 11, 11, 14, 13, 10, 7, 5, 4, 17, 17, 15, 12, 11, 8, 11, 10, 9, 7, 6, 6, 19, 18, 18, 17, 16, 16, 15, 14, 13, 11, 10, 10, 16, 15, 12, 11, 9, 5, 11, 11, 9, 8, 7, 5, 20, 19, 19, 19, 19, 19, 12, 9, 8, 8, 4, 4, 16, 11, 8, 8, 3, 1, 9, 8, 8, 7, 7, 6, 16, 15, 15, 15, 14, 14, 18, 16, 15, 13, 11, 11, 18, 15, 11, 9, 7, 3, 6, 6, 6, 5, 5, 5, 5, 4, 4, 4, 4, 4, 16, 16, 14, 14, 13, 12, 15, 11, 10, 10, 6, 5, 16, 16, 16, 16, 16, 16, 1, 1, 1, 1, 1, 1, 9, 8, 8, 7, 7, 6, 8, 8, 6, 6, 4, 3, 16, 15, 12, 11, 7, 6, 9, 9, 8, 8, 7, 7, 10, 9, 8, 8, 7, 6, 15, 13, 13, 12, 11, 10, 17, 17, 17, 16, 16, 16, 9, 8, 5, 4, 2, 1, 17, 16, 15, 15, 13, 13, 12, 11, 11, 9, 9, 7, 16, 14, 14, 11, 9, 7, 15, 12, 11, 7, 5, 3, 18, 16, 12, 11, 9, 6, 5, 4, 4, 4, 3, 3
 |19, 16, 15, 13, 12, 10, 15, 15, 13, 12, 11, 11, 19, 18, 16, 16, 14, 14, 7, 6, 5, 3, 2, 2, 2, 2, 2, 2, 2, 2, 13, 11, 10, 9, 8, 7, 14, 14, 13, 13, 13, 12, 15, 13, 11, 7, 5, 5, 3, 3, 3, 3, 3, 3, 10, 10, 10, 10, 10, 10, 6, 6, 6, 5, 5, 4, 15, 15, 13, 9, 9, 7, 17, 17, 13, 10, 7, 4, 13, 12, 10, 7, 5, 1, 4, 4, 4, 4, 4, 4, 7, 6, 5, 4, 2, 2, 11, 9, 7, 7, 4, 2, 6, 5, 5, 5, 5, 5, 19, 18, 17, 17, 17, 16, 18, 14, 11, 8, 6, 5, 12, 12, 10, 7, 4, 4, 14, 14, 14, 14, 13, 13, 17, 17, 16, 14, 13, 13, 15, 13, 13, 12, 11, 11, 6, 4, 3, 2, 1, 1, 18, 14, 12, 9, 6, 3, 10, 10, 8, 7, 7, 5, 14, 14, 14, 14, 14, 14, 9, 8, 7, 4, 4, 3, 18, 17, 16, 16, 15, 14, 8, 7, 6, 6, 4, 2, 17, 16, 15, 15, 14, 13, 8, 8, 8, 8, 8, 8, 18, 16, 14, 13, 12, 11, 14, 14, 14, 14, 13, 13, 5, 5, 5, 5, 5, 5, 16, 15, 13, 13, 9, 9, 8, 7, 7, 6, 4, 3, 16, 15, 15, 14, 14, 14, 18, 17, 16, 16, 14, 14, 14, 13, 10, 8, 6, 6, 13, 12, 11, 9, 8, 7, 16, 14, 14, 13, 13, 12, 15, 14, 14, 14, 13, 12, 15, 13, 12, 11, 8, 7, 15, 12, 11, 10, 9, 6, 15, 14, 10, 8, 8, 5, 16, 14, 13, 12, 12, 11, 9, 7, 7, 5, 4, 4, 16, 16, 16, 16, 16, 16, 5, 4, 3, 3, 2, 2, 5, 5, 5, 4, 4, 3, 9, 8, 7, 7, 6, 6, 12, 10, 9, 7, 5, 3, 11, 11, 11, 11, 11, 11, 12, 10, 10, 9, 9, 8, 3, 3, 3, 3, 3, 3, 18, 14, 14, 13, 10, 9, 12, 10, 9, 8, 8, 6, 9, 9, 6, 6, 4, 2, 6, 6, 4, 4, 2, 2, 18, 18, 18, 18, 18, 18, 9, 9, 9, 8, 7, 7, 13, 13, 12, 11, 10, 9, 11, 10, 9, 9, 9, 8, 12, 12, 10, 9, 7, 5, 2, 2, 2, 2, 1, 1, 11, 9, 9, 9, 8, 7, 12, 12, 12, 11, 10, 10, 14, 14, 12, 12, 11, 10, 15, 12, 10, 10, 6, 6, 13, 12, 11, 10, 10, 8, 8, 8, 8, 8, 8, 8, 20, 17, 12, 8, 8, 3, 17, 15, 13, 11, 11, 10, 15, 13, 13, 11, 9, 7, 4, 3, 3, 3, 3, 3, 11, 11, 9, 8, 7, 7, 16, 13, 9, 7, 5, 4, 6, 6, 6, 5, 5, 4, 11, 10, 9, 6, 3, 2, 6, 6, 5, 4, 2, 1, 16, 12, 9, 7, 7, 3, 15, 15, 13, 11, 8, 7, 13, 10, 10, 7, 3, 1, 13, 12, 12, 12, 12, 12, 12, 12, 9, 8, 6, 4, 10, 8, 8, 7, 5, 5, 14, 13, 13, 13, 13, 13, 11, 10, 7, 6, 5, 1, 14, 11, 11, 8, 7, 6, 18, 14, 13, 9, 6, 3, 4, 4, 4, 3, 3, 3, 17, 17, 16, 15, 14, 12, 12, 11, 11, 11, 10, 9, 13, 13, 13, 13, 13, 13, 10, 9, 9, 8, 7, 7, 9, 6, 5, 5, 4, 3, 12, 10, 8, 6, 5, 3, 16, 15, 14, 14, 14, 13
 |17, 13, 12, 8, 4, 2, 15, 15, 14, 14, 13, 12, 7, 6, 4, 3, 3, 2, 13, 11, 10, 9, 9, 8, 12, 10, 8, 7, 5, 3, 11, 10, 10, 9, 8, 8, 12, 11, 9, 8, 4, 2, 13, 11, 9, 8, 7, 6, 8, 6, 6, 4, 4, 3, 15, 12, 9, 7, 4, 4, 18, 18, 18, 18, 18, 18, 18, 17, 15, 13, 10, 10, 9, 9, 9, 9, 9, 9, 16, 16, 13, 9, 9, 6, 19, 13, 12, 11, 5, 3, 5, 4, 4, 4, 4, 4, 15, 14, 14, 13, 12, 11, 16, 16, 16, 15, 15, 15, 7, 6, 6, 5, 5, 5, 9, 9, 9, 9, 9, 9, 11, 9, 9, 7, 7, 6, 11, 9, 8, 6, 3, 1, 14, 12, 10, 9, 6, 4, 12, 10, 10, 10, 8, 8, 15, 15, 15, 15, 15, 15, 4, 3, 3, 2, 1, 1, 5, 4, 3, 3, 3, 2, 14, 14, 13, 12, 10, 10, 8, 7, 6, 5, 5, 4, 16, 12, 10, 10, 8, 5, 19, 19, 19, 19, 18, 18, 3, 2, 2, 1, 1, 1, 16, 14, 13, 10, 9, 6, 7, 7, 7, 7, 7, 7, 17, 15, 14, 12, 9, 8, 14, 12, 11, 9, 7, 6, 8, 6, 6, 4, 3, 2, 11, 10, 9, 7, 5, 5, 14, 13, 12, 10, 8, 5, 19, 18, 16, 14, 13, 10, 17, 14, 12, 10, 9, 5, 3, 3, 3, 3, 3, 3, 19, 18, 18, 18, 17, 17, 5, 5, 5, 4, 4, 3, 13, 12, 12, 11, 11, 11, 16, 14, 11, 10, 8, 8, 6, 6, 6, 6, 6, 6, 18, 16, 13, 13, 11, 8, 12, 11, 10, 9, 8, 8, 17, 14, 11, 9, 8, 6, 15, 13, 13, 12, 11, 11, 7, 6, 5, 5, 5, 4, 9, 7, 6, 6, 4, 3, 19, 14, 14, 11, 8, 5, 6, 5, 5, 3, 2, 1, 12, 12, 12, 11, 10, 10, 15, 14, 13, 13, 12, 12, 6, 4, 4, 4, 2, 2, 18, 18, 16, 15, 14, 14, 13, 13, 12, 11, 10, 8, 14, 12, 11, 10, 10, 8, 12, 12, 12, 12, 11, 11, 15, 14, 14, 13, 13, 13, 15, 14, 12, 12, 10, 10, 20, 19, 18, 17, 16, 16, 18, 18, 18, 18, 18, 18, 7, 6, 6, 5, 4, 3, 19, 16, 12, 12, 9, 5, 13, 12, 12, 12, 10, 10, 15, 13, 13, 11, 9, 7, 6, 6, 6, 6, 6, 6, 14, 14, 14, 14, 14, 14, 13, 11, 9, 7, 3, 1, 3, 3, 3, 3, 3, 3, 19, 19, 19, 19, 19, 19, 18, 15, 12, 10, 7, 4, 12, 12, 12, 11, 11, 11, 18, 14, 13, 12, 11, 9, 15, 13, 11, 7, 4, 3, 15, 11, 9, 8, 6, 4, 12, 11, 10, 9, 8, 7, 17, 13, 12, 9, 6, 1, 19, 17, 15, 11, 9, 6, 2, 2, 2, 1, 1, 1, 13, 12, 11, 10, 10, 9, 16, 16, 16, 15, 15, 15, 9, 7, 7, 5, 5, 4, 12, 11, 9, 8, 6, 5, 12, 12, 9, 7, 6, 3, 16, 16, 16, 16, 16, 16, 19, 18, 18, 18, 18, 18, 17, 14, 11, 7, 6, 2, 15, 14, 12, 11, 11, 10, 17, 17, 17, 17, 17, 17, 5, 5, 5, 5, 4, 4, 12, 10, 9, 9, 7, 6, 12, 11, 9, 9, 7, 6, 13, 11, 9, 8, 6, 5, 13, 11, 10, 9, 7, 5, 14, 13, 13, 12, 11, 10
 |11, 11, 11, 10, 10, 10, 18, 14, 14, 9, 5, 5, 18, 16, 14, 11, 6, 5, 17, 15, 14, 12, 10, 9, 15, 15, 15, 15, 15, 15, 19, 17, 16, 14, 13, 12, 9, 7, 6, 5, 5, 4, 8, 7, 6, 6, 5, 4, 18, 15, 15, 13, 12, 11, 17, 15, 13, 12, 10, 10, 8, 7, 6, 6, 5, 4, 19, 19, 19, 19, 19, 19, 12, 12, 12, 12, 11, 11, 5, 4, 3, 3, 1, 1, 17, 17, 16, 16, 14, 14, 16, 16, 13, 13, 11, 9, 16, 13, 12, 10, 9, 8, 18, 14, 13, 12, 10, 7, 18, 17, 16, 15, 14, 13, 16, 15, 14, 13, 12, 11, 15, 15, 15, 15, 15, 15, 2, 2, 2, 2, 2, 2, 12, 12, 11, 11, 10, 10, 14, 13, 13, 13, 12, 12, 19, 19, 19, 19, 19, 19, 8, 6, 5, 5, 3, 2, 11, 10, 9, 8, 6, 4, 16, 14, 14, 12, 11, 8, 15, 14, 12, 11, 8, 7, 15, 15, 14, 14, 14, 13, 19, 18, 18, 18, 18, 18, 6, 5, 5, 5, 5, 5, 13, 11, 10, 6, 4, 3, 9, 9, 8, 8, 7, 7, 15, 15, 13, 13, 11, 10, 19, 17, 17, 14, 12, 11, 19, 18, 18, 17, 17, 17, 11, 9, 9, 8, 8, 7, 12, 9, 8, 6, 6, 4, 15, 13, 9, 6, 3, 1, 14, 12, 11, 8, 5, 1, 13, 13, 12, 12, 12, 11, 14, 14, 14, 14, 14, 14, 7, 6, 6, 5, 3, 3, 11, 11, 11, 11, 11, 11, 6, 5, 5, 3, 2, 2, 10, 10, 10, 10, 9, 9, 17, 15, 15, 12, 11, 9, 11, 10, 9, 9, 9, 8, 15, 15, 14, 13, 12, 11, 15, 13, 11, 10, 8, 4, 19, 15, 13, 13, 9, 7, 12, 11, 10, 9, 8, 8, 16, 13, 12, 11, 10, 10, 15, 15, 15, 15, 15, 15, 18, 17, 14, 14, 12, 11, 8, 7, 5, 4, 4, 3, 5, 5, 5, 5, 4, 4, 16, 15, 15, 14, 13, 13, 15, 15, 15, 15, 15, 15, 14, 13, 12, 9, 9, 8, 16, 13, 9, 7, 7, 5, 12, 11, 9, 8, 8, 7, 12, 11, 10, 8, 8, 5, 11, 10, 9, 8, 8, 7, 19, 18, 17, 16, 15, 15, 19, 16, 12, 8, 7, 3, 10, 10, 9, 7, 6, 6, 19, 14, 13, 11, 8, 6, 14, 13, 11, 10, 9, 9, 12, 12, 11, 8, 6, 5, 11, 9, 7, 5, 4, 2, 12, 12, 11, 9, 8, 7, 15, 15, 12, 10, 9, 7, 15, 15, 13, 13, 11, 11, 17, 16, 14, 12, 12, 10, 3, 3, 3, 3, 3, 3, 19, 18, 17, 17, 17, 16, 17, 15, 15, 15, 14, 13, 17, 17, 17, 17, 17, 17, 14, 12, 11, 9, 4, 2, 14, 10, 7, 7, 5, 1, 9, 7, 7, 5, 5, 4, 6, 5, 5, 4, 2, 2, 20, 19, 19, 19, 18, 18, 14, 13, 10, 9, 8, 6, 15, 10, 9, 8, 4, 2, 17, 17, 17, 17, 17, 17, 10, 8, 8, 6, 6, 4, 18, 16, 14, 14, 12, 10, 13, 12, 11, 11, 9, 9, 9, 8, 7, 7, 7, 6, 5, 4, 3, 2, 1, 1, 11, 11, 11, 11, 10, 10, 9, 7, 6, 4, 2, 2, 15, 14, 12, 11, 9, 7, 1, 1, 1, 1, 1, 1, 17, 17, 14, 11, 11, 7, 7, 6, 5, 4, 2, 1, 6, 6, 6, 6, 5, 5
 |16, 16, 15, 15, 14, 14, 13, 13, 13, 12, 12, 12, 11, 9, 8, 5, 5, 2, 6, 5, 5, 5, 4, 4, 8, 7, 7, 6, 6, 6, 3, 3, 3, 3, 3, 3, 14, 13, 12, 11, 10, 9, 13, 13, 10, 10, 8, 6, 19, 19, 18, 16, 15, 15, 17, 15, 13, 9, 8, 6, 16, 15, 13, 12, 11, 10, 15, 15, 15, 15, 15, 15, 19, 15, 14, 9, 8, 6, 11, 11, 11, 10, 10, 9, 19, 19, 18, 18, 17, 17, 20, 19, 18, 17, 16, 16, 20, 18, 17, 17, 16, 15, 10, 8, 8, 6, 5, 5, 14, 14, 14, 14, 13, 13, 11, 11, 10, 10, 9, 8, 9, 8, 8, 7, 7, 6, 15, 14, 14, 13, 13, 13, 16, 16, 14, 13, 13, 12, 3, 2, 2, 2, 1, 1, 11, 10, 10, 10, 10, 10, 18, 16, 14, 13, 10, 9, 11, 8, 6, 4, 3, 2, 18, 16, 16, 14, 14, 13, 14, 14, 14, 13, 13, 13, 16, 15, 14, 14, 13, 12, 13, 13, 10, 9, 6, 5, 20, 19, 19, 19, 19, 19, 12, 9, 6, 6, 3, 1, 19, 19, 17, 16, 16, 15, 6, 6, 6, 6, 6, 6, 12, 11, 9, 8, 8, 6, 9, 6, 6, 4, 3, 2, 15, 11, 10, 8, 5, 3, 12, 11, 10, 9, 7, 7, 12, 11, 11, 10, 8, 8, 13, 13, 13, 12, 12, 12, 13, 10, 7, 7, 3, 1, 18, 16, 15, 13, 11, 8, 16, 16, 14, 13, 12, 12, 13, 12, 10, 9, 7, 5, 14, 13, 13, 13, 12, 12, 16, 16, 15, 14, 13, 12, 17, 17, 16, 15, 14, 13, 18, 17, 14, 12, 10, 10, 12, 10, 8, 6, 5, 2, 15, 15, 15, 15, 15, 15, 18, 15, 13, 11, 9, 7, 13, 12, 12, 12, 11, 10, 16, 14, 14, 12, 11, 11, 13, 13, 9, 8, 7, 5, 15, 14, 12, 11, 10, 10, 16, 15, 15, 14, 13, 12, 14, 12, 11, 10, 8, 7, 14, 14, 10, 8, 7, 6, 12, 11, 9, 9, 7, 6, 15, 15, 15, 15, 14, 14, 14, 14, 14, 14, 14, 14, 17, 16, 16, 16, 15, 15, 2, 2, 2, 2, 2, 2, 4, 3, 3, 3, 2, 2, 9, 8, 8, 7, 6, 6, 17, 14, 10, 7, 6, 2, 18, 18, 18, 18, 18, 18, 20, 19, 19, 19, 19, 19, 14, 13, 10, 6, 3, 2, 18, 16, 13, 12, 8, 7, 15, 15, 12, 10, 9, 6, 14, 14, 12, 12, 11, 10, 6, 6, 6, 6, 6, 6, 18, 14, 14, 12, 10, 7, 7, 6, 6, 6, 6, 6, 7, 6, 4, 3, 3, 2, 19, 17, 15, 15, 14, 13, 14, 13, 12, 9, 7, 6, 15, 15, 15, 14, 14, 13, 20, 17, 15, 14, 12, 10, 3, 3, 3, 2, 2, 2, 8, 6, 6, 5, 4, 3, 16, 16, 15, 15, 15, 14, 16, 15, 12, 12, 10, 6, 13, 13, 12, 11, 9, 8, 16, 16, 15, 14, 13, 12, 2, 2, 2, 2, 2, 2, 11, 10, 10, 9, 9, 8, 17, 16, 15, 15, 14, 14, 19, 17, 16, 14, 13, 10, 13, 10, 10, 9, 5, 4, 17, 15, 13, 12, 8, 8, 16, 15, 12, 10, 9, 6, 12, 12, 11, 9, 8, 8, 10, 10, 10, 9, 9, 9, 8, 7, 6, 6, 4, 4, 9, 8, 8, 7, 7, 6, 15, 14, 13, 13, 12, 12, 16, 13, 13, 11, 9, 7
 |4, 4, 4, 3, 2, 2, 16, 16, 15, 14, 13, 11, 5, 4, 4, 2, 2, 1, 4, 4, 3, 3, 3, 2, 16, 14, 13, 12, 9, 9, 5, 4, 4, 3, 3, 3, 12, 12, 9, 6, 6, 2, 9, 9, 8, 8, 7, 7, 18, 16, 16, 15, 13, 13, 3, 2, 2, 2, 2, 2, 2, 2, 2, 2, 1, 1, 14, 12, 12, 12, 10, 10, 17, 16, 14, 14, 12, 12, 6, 5, 5, 5, 5, 5, 17, 17, 17, 17, 17, 17, 14, 10, 10, 8, 4, 3, 14, 14, 13, 12, 11, 10, 16, 13, 11, 6, 5, 3, 5, 4, 4, 3, 3, 2, 15, 13, 12, 9, 7, 7, 14, 13, 13, 13, 13, 13, 16, 15, 14, 11, 11, 10, 19, 15, 14, 13, 11, 9, 16, 12, 11, 9, 9, 7, 4, 4, 4, 4, 4, 4, 18, 18, 18, 18, 18, 18, 12, 11, 8, 8, 6, 4, 17, 17, 16, 15, 13, 13, 17, 13, 13, 8, 5, 4, 9, 8, 8, 7, 7, 6, 16, 16, 13, 12, 10, 7, 16, 16, 16, 16, 16, 16, 13, 12, 12, 11, 11, 11, 15, 13, 12, 10, 9, 7, 19, 14, 12, 10, 7, 4, 18, 16, 13, 11, 11, 8, 16, 12, 10, 7, 6, 5, 7, 6, 6, 5, 3, 3, 8, 7, 6, 5, 4, 3, 8, 5, 5, 4, 2, 2, 12, 11, 11, 10, 10, 10, 14, 14, 14, 14, 14, 14, 9, 9, 7, 4, 4, 1, 16, 12, 11, 11, 8, 6, 14, 12, 8, 6, 6, 2, 12, 11, 11, 11, 11, 11, 12, 12, 12, 11, 11, 11, 10, 9, 9, 9, 8, 8, 8, 7, 7, 7, 6, 6, 19, 17, 17, 15, 14, 12, 18, 15, 15, 14, 12, 11, 8, 8, 7, 7, 6, 6, 13, 13, 13, 13, 12, 12, 14, 14, 13, 12, 10, 9, 15, 14, 14, 13, 13, 13, 13, 12, 10, 9, 8, 6, 13, 11, 11, 10, 10, 9, 7, 6, 6, 6, 6, 6, 14, 14, 12, 11, 10, 10, 13, 12, 10, 9, 9, 8, 11, 11, 9, 8, 8, 6, 4, 4, 4, 3, 2, 2, 16, 16, 15, 13, 12, 12, 17, 14, 14, 12, 11, 11, 16, 14, 10, 9, 6, 3, 10, 8, 7, 6, 6, 4, 17, 15, 13, 11, 9, 8, 8, 8, 8, 8, 8, 8, 9, 9, 9, 9, 9, 9, 18, 17, 16, 15, 15, 14, 4, 4, 3, 3, 2, 2, 18, 15, 14, 12, 9, 7, 10, 10, 10, 10, 10, 10, 9, 9, 9, 9, 9, 9, 16, 14, 13, 11, 10, 7, 2, 2, 2, 2, 2, 2, 7, 7, 5, 4, 3, 1, 1, 1, 1, 1, 1, 1, 12, 12, 11, 10, 7, 7, 12, 11, 10, 9, 8, 8, 19, 19, 19, 18, 18, 17, 15, 14, 14, 14, 13, 13, 20, 19, 17, 16, 15, 15, 11, 10, 10, 9, 9, 9, 14, 14, 13, 13, 13, 12, 15, 13, 11, 8, 7, 4, 6, 5, 4, 3, 2, 2, 7, 6, 5, 4, 3, 3, 17, 13, 13, 12, 10, 7, 10, 9, 7, 7, 6, 5, 14, 14, 13, 11, 10, 9, 12, 10, 8, 6, 4, 4, 8, 8, 7, 7, 7, 6, 13, 13, 12, 12, 11, 10, 15, 11, 10, 7, 5, 4, 16, 15, 15, 14, 13, 12, 11, 10, 10, 10, 10, 10, 17, 17, 17, 17, 16, 16, 17, 16, 12, 8, 4, 2, 10, 9, 9, 8, 8, 8|];